79 300 265 124 161 187 208 242 162 67 268 298 147 211 267 243 133 260 279 146 266 24 101 234 83 269 258 87 129 164 238 259 195 254 134 55 140 42 296 54 160 15 51 6 225 70 1 109 81 279 254 46 3 107 279 137 127 236 224 255 152 161 266 46 114 99 152 6 192 200 111 52 214 213 57 191 34 57 299 114 36 